START_NODE
395, 285
DELIVERY_NODES
434, 208
414, 236
495, 353
375, 224
368, 352
357, 323
365, 214
407, 241
293, 311
339, 362
420, 217
442, 225
358, 200
285, 204
366, 235
444, 249
284, 312
484, 240
363, 160
362, 316
319, 201
416, 234
434, 362
312, 322
322, 212
315, 232
356, 307
418, 302
309, 213
397, 342
320, 312
310, 166
335, 199
478, 251
376, 260
310, 368
317, 219
450, 349
334, 324
322, 211
296, 302
345, 307
416, 207
500, 312
375, 348
460, 327
381, 341
323, 285
366, 337
339, 368